POSCAR_for_test_code
   1.0000000000000
     2.3999999999999999    0.0000000000000000    0.0000000000000000
    -1.2000000000000000    1.9991999999999999    0.0000000000000000
     0.0000000000000000    0.0000000000000000    3.9199199999999998
   Mg
     2
Selective dynamics
cartesian
  0.0000000000000000  0.0000000000000000  0.0000000000000000  F  F  T
 -0.0001200000000000  1.3328666399999998  1.9599599999999999  F  T  T
