POSCAR_for_test_code
  2.4000
    1.0000  0.0000  0.0000
   -0.5000  0.8330  0.0000
    0.0000  0.0000  1.6333
Mg
  2
Direct
  0.0000  0.0000  0.0000
  0.3333  0.6667  0.5000
